robust/generate/spp_dkp_Lefebvre_et_al_2026/src/shortest_path_3_9.kp
51
77

[8.67 0.57 4.41 8.26 3.65 12.18]

[6 63 43 43 45 77]
